[runlim] version:		1.10
[runlim] time limit:		311040000 seconds
[runlim] real time limit:	600 seconds
[runlim] space limit:		14000 MB
[runlim] argv[0]:		python3
[runlim] argv[1]:		-u
[runlim] argv[2]:		mip.py
[runlim] argv[3]:		graph05
[runlim] start:			Tue Jan 20 13:48:28 2026
[runlim] main pid:		41464
Building MIP model...
[runlim] sample:		10.0 time, 10.1 real, 31.4 MB
[runlim] sample:		20.0 time, 20.1 real, 34.6 MB
[runlim] sample:		30.0 time, 30.1 real, 36.6 MB
[runlim] sample:		39.9 time, 40.1 real, 38.8 MB
[runlim] sample:		49.9 time, 50.1 real, 41.4 MB
[runlim] sample:		59.9 time, 60.1 real, 44.8 MB
[runlim] sample:		69.9 time, 70.1 real, 48.0 MB
[runlim] sample:		79.9 time, 80.1 real, 48.8 MB
Build time: 85.79s
Solving MIP (minimizing number of labels)...
Version identifier: 22.1.1.0 | 2022-11-28 | 9160aff4d
CPXPARAM_Read_DataCheck                          1
Legacy callback                                  i
Tried aggregator 2 times.
[runlim] sample:		96.4 time, 90.1 real, 221.6 MB
Infeasibility row 'c11':  0  = 1.
Presolve time = 5.67 sec. (11047.02 ticks)

Root node processing (before b&c):
  Real time             =    5.69 sec. (11072.54 ticks)
Parallel b&c, 12 threads:
  Real time             =    0.00 sec. (0.00 ticks)
  Sync time (average)   =    0.00 sec.
  Wait time (average)   =    0.00 sec.
                          ------------
Total (root+branch&cut) =    5.69 sec. (11072.54 ticks)
CPLEX Error  1217: No solution exists.
No solution found.
[runlim] end:			Tue Jan 20 13:49:59 2026
[runlim] status:		ok
[runlim] result:		0
[runlim] children:		0
[runlim] real:			91.65 seconds
[runlim] time:			98.85 seconds
[runlim] space:			222.4 MB
[runlim] samples:		915
